20829 16729 1 5 6 8 9 10 12 13 15 16 17 19 20 21 22 24 26 27 28 29 30 31 32 33 34 35 36 37 38 39 40 41 43 44 45 46 49 50 51 52 54 55 56 57 58 59 63 64 65 66 67 68 69 70 71 72 73 74 75 77 78 79 81 82 83 85 86 87 88 89 90 91 92 94 95 96 97 98 99 100 104 105 106 107 108 109 110 111 112 114 115 116 117 118 119 120 122 123 124 125 126 127 128 129 130 131 132 133 134 135 136 137 138 139 140 141 142 143 144 145 146 147 148 149 153 154 155 156 158 159 160 161 162 163 164 165 166 167 169 170 171 172 173 174 175 177 179 181 182 183 184 185 187 188 189 190 191 192 193 194 196 198 199 200 201 202 203 204 205 206 207 208 209 210 211 212 213 214 216 217 218 220 222 224 225 227 228 229 231 232 233 234 235 236 238 239 240 241 242 243 245 246 247 248 249 250 251 253 254 256 257 258 259 260 261 262 263 265 266 267 268 269 270 272 273 274 275 276 277 278 279 280 281 282 283 284 285 286 287 288 289 290 292 293 294 295 296 297 298 300 301 302 303 304 305 306 307 308 309 310 311 312 313 314 315 316 317 318 319 320 321 322 324 325 326 327 329 332 333 334 335 338 339 340 341 342 343 344 345 346 347 348 350 351 352 353 355 356 359 360 361 362 364 365 366 367 368 369 370 371 372 373 374 377 378 379 380 381 382 383 384 385 386 387 389 390 391 393 394 395 396 397 398 399 400 402 403 404 406 408 409 410 411 412 413 414 416 417 418 419 421 422 424 426 427 428 429 432 433 434 435 437 438 439 440 441 442 444 445 446 447 448 449 451 452 453 454 455 457 459 460 461 462 464 465 467 468 469 470 471 472 475 476 477 478 479 481 483 484 485 488 489 491 493 494 495 496 497 498 499 